1 -34 -60 0
h 61 -41 0
64435746 64 0
102133454 -60 64 0
167382736 -34 0
1 68 63 0
57634389 8 0
138572718 -68 -63 0
137006908 8 0
250326485 -66 -39 0
67228604 60 0
903426411 -64 -39 -63 0
267982319 47 0
h 34 1 0
h 107 60 0
114377979 -107 0
h -61 108 0
h -66 108 0
672013093 -108 0
593049102 -109 0
h -1 66 0
761015780 -111 0
h -1 -68 0
h 68 1 0
